RAW/D/fspd-mid/SCA8-2.vrpspd_seed-6.out
1039.6336	11.249	150.468
