RAW/D/fspd-mid/SCA8-2.vrpspd_seed-6.sol
Route #1: 23 11 42 40 3 17
Route #2: 18 21 34 7 15 49
Route #3: 35 1 37 16 41 26 46
Route #4: 48 5 30 8 14
Route #5: 33 47 36 38 24
Route #6: 25 10 12 32 9
Route #7: 43 27 19 31 45
Route #8: 20 13 6 4 39
Route #9: 50 44 29 22 28 2
Cost 10396336.000000